p cnf 962 2469
51 -2 -1 0
-51 2 0
-51 1 0
52 -51 -3 0
-52 51 0
-52 3 0
53 -695 -696 0
-53 695 0
-53 696 0
54 -53 -6 0
-54 53 0
-54 6 0
55 -697 -698 0
-55 697 0
-55 698 0
56 -8 -7 0
-56 8 0
-56 7 0
57 -56 -699 0
-57 56 0
-57 699 0
58 -700 -55 0
-58 700 0
-58 55 0
59 -701 -702 0
-59 701 0
-59 702 0
60 -59 -703 0
-60 59 0
-60 703 0
61 -704 -58 0
-61 704 0
-61 58 0
62 -13 -4 0
-62 13 0
-62 4 0
63 -62 -14 0
-63 62 0
-63 14 0
64 -705 -61 0
-64 705 0
-64 61 0
65 -15 -706 0
-65 15 0
-65 706 0
66 -65 -16 0
-66 65 0
-66 16 0
67 -707 -64 0
-67 707 0
-67 64 0
68 -708 -709 0
-68 708 0
-68 709 0
69 -68 -703 0
-69 68 0
-69 703 0
70 -710 -67 0
-70 710 0
-70 67 0
71 -711 -2 0
-71 711 0
-71 2 0
72 -71 -20 0
-72 71 0
-72 20 0
73 -712 -70 0
-73 712 0
-73 70 0
74 -21 -6 0
-74 21 0
-74 6 0
75 -74 -22 0
-75 74 0
-75 22 0
76 -713 -73 0
-76 713 0
-76 73 0
77 -714 -715 0
-77 714 0
-77 715 0
78 -77 -22 0
-78 77 0
-78 22 0
79 -716 -76 0
-79 716 0
-79 76 0
80 -25 -717 0
-80 25 0
-80 717 0
81 -80 -26 0
-81 80 0
-81 26 0
82 -718 -79 0
-82 718 0
-82 79 0
83 -719 -27 0
-83 719 0
-83 27 0
84 -83 -720 0
-84 83 0
-84 720 0
85 -721 -82 0
-85 721 0
-85 82 0
86 -29 -719 0
-86 29 0
-86 719 0
87 -86 -722 0
-87 86 0
-87 722 0
88 -723 -85 0
-88 723 0
-88 85 0
89 -724 -27 0
-89 724 0
-89 27 0
90 -89 -31 0
-90 89 0
-90 31 0
91 -725 -88 0
-91 725 0
-91 88 0
92 -726 -21 0
-92 726 0
-92 21 0
93 -92 -6 0
-93 92 0
-93 6 0
94 -727 -91 0
-94 727 0
-94 91 0
95 -728 -27 0
-95 728 0
-95 27 0
96 -95 -15 0
-96 95 0
-96 15 0
97 -729 -94 0
-97 729 0
-97 94 0
98 -33 -11 0
-98 33 0
-98 11 0
99 -98 -730 0
-99 98 0
-99 730 0
100 -731 -97 0
-100 731 0
-100 97 0
101 -732 -733 0
-101 732 0
-101 733 0
102 -101 -6 0
-102 101 0
-102 6 0
103 -734 -100 0
-103 734 0
-103 100 0
104 -33 -715 0
-104 33 0
-104 715 0
105 -104 -735 0
-105 104 0
-105 735 0
106 -736 -103 0
-106 736 0
-106 103 0
107 -719 -722 0
-107 719 0
-107 722 0
108 -107 -3 0
-108 107 0
-108 3 0
109 -737 -106 0
-109 737 0
-109 106 0
110 -695 -1 0
-110 695 0
-110 1 0
111 -110 -738 0
-111 110 0
-111 738 0
112 -739 -109 0
-112 739 0
-112 109 0
113 -39 -740 0
-113 39 0
-113 740 0
114 -113 -40 0
-114 113 0
-114 40 0
115 -741 -112 0
-115 741 0
-115 112 0
116 -27 -706 0
-116 27 0
-116 706 0
117 -116 -715 0
-117 116 0
-117 715 0
118 -742 -115 0
-118 742 0
-118 115 0
119 -730 -726 0
-119 730 0
-119 726 0
120 -119 -743 0
-120 119 0
-120 743 0
121 -744 -118 0
-121 744 0
-121 118 0
122 -745 -746 0
-122 745 0
-122 746 0
123 -122 -747 0
-123 122 0
-123 747 0
124 -748 -121 0
-124 748 0
-124 121 0
125 -733 -749 0
-125 733 0
-125 749 0
126 -125 -18 0
-126 125 0
-126 18 0
127 -750 -124 0
-127 750 0
-127 124 0
128 -38 -4 0
-128 38 0
-128 4 0
129 -128 -751 0
-129 128 0
-129 751 0
130 -752 -127 0
-130 752 0
-130 127 0
131 -39 -717 0
-131 39 0
-131 717 0
132 -131 -753 0
-132 131 0
-132 753 0
133 -754 -130 0
-133 754 0
-133 130 0
134 -755 -749 0
-134 755 0
-134 749 0
135 -134 -756 0
-135 134 0
-135 756 0
136 -757 -133 0
-136 757 0
-136 133 0
137 -41 -24 0
-137 41 0
-137 24 0
138 -137 -20 0
-138 137 0
-138 20 0
139 -758 -136 0
-139 758 0
-139 136 0
140 -759 -709 0
-140 759 0
-140 709 0
141 -140 -695 0
-141 140 0
-141 695 0
142 -760 -139 0
-142 760 0
-142 139 0
143 -759 -735 0
-143 759 0
-143 735 0
144 -143 -761 0
-144 143 0
-144 761 0
145 -762 -142 0
-145 762 0
-145 142 0
146 -763 -45 0
-146 763 0
-146 45 0
147 -146 -764 0
-147 146 0
-147 764 0
148 -765 -145 0
-148 765 0
-148 145 0
149 -43 -18 0
-149 43 0
-149 18 0
150 -149 -735 0
-150 149 0
-150 735 0
151 -766 -148 0
-151 766 0
-151 148 0
152 -56 -20 0
-152 56 0
-152 20 0
153 -767 -151 0
-153 767 0
-153 151 0
154 -31 -709 0
-154 31 0
-154 709 0
155 -154 -753 0
-155 154 0
-155 753 0
156 -768 -153 0
-156 768 0
-156 153 0
157 -48 -47 0
-157 48 0
-157 47 0
158 -157 -761 0
-158 157 0
-158 761 0
159 -769 -156 0
-159 769 0
-159 156 0
160 -759 -2 0
-160 759 0
-160 2 0
161 -160 -19 0
-161 160 0
-161 19 0
162 -770 -159 0
-162 770 0
-162 159 0
163 -715 -749 0
-163 715 0
-163 749 0
164 -163 -732 0
-164 163 0
-164 732 0
165 -771 -162 0
-165 771 0
-165 162 0
166 -763 -10 0
-166 763 0
-166 10 0
167 -166 -722 0
-167 166 0
-167 722 0
168 -772 -165 0
-168 772 0
-168 165 0
169 -48 -724 0
-169 48 0
-169 724 0
170 -169 -14 0
-170 169 0
-170 14 0
171 -773 -168 0
-171 773 0
-171 168 0
172 -740 -1 0
-172 740 0
-172 1 0
173 -172 -20 0
-173 172 0
-173 20 0
174 -774 -171 0
-174 774 0
-174 171 0
175 -33 -775 0
-175 33 0
-175 775 0
176 -175 -703 0
-176 175 0
-176 703 0
177 -776 -174 0
-177 776 0
-177 174 0
178 -22 -6 0
-178 22 0
-178 6 0
179 -178 -756 0
-179 178 0
-179 756 0
180 -777 -177 0
-180 777 0
-180 177 0
181 -20 -702 0
-181 20 0
-181 702 0
182 -181 -730 0
-182 181 0
-182 730 0
183 -778 -180 0
-183 778 0
-183 180 0
184 -24 -709 0
-184 24 0
-184 709 0
185 -184 -3 0
-185 184 0
-185 3 0
186 -779 -183 0
-186 779 0
-186 183 0
187 -780 -703 0
-187 780 0
-187 703 0
188 -187 -756 0
-188 187 0
-188 756 0
189 -781 -186 0
-189 781 0
-189 186 0
190 -39 -775 0
-190 39 0
-190 775 0
191 -190 -26 0
-191 190 0
-191 26 0
192 -782 -189 0
-192 782 0
-192 189 0
193 -146 -783 0
-193 146 0
-193 783 0
194 -784 -192 0
-194 784 0
-194 192 0
195 -751 -775 0
-195 751 0
-195 775 0
196 -195 -3 0
-196 195 0
-196 3 0
197 -785 -194 0
-197 785 0
-197 194 0
198 -42 -695 0
-198 42 0
-198 695 0
199 -198 -722 0
-199 198 0
-199 722 0
200 -786 -197 0
-200 786 0
-200 197 0
201 -733 -17 0
-201 733 0
-201 17 0
202 -201 -722 0
-202 201 0
-202 722 0
203 -787 -200 0
-203 787 0
-203 200 0
204 -733 -31 0
-204 733 0
-204 31 0
205 -204 -16 0
-205 204 0
-205 16 0
206 -788 -203 0
-206 788 0
-206 203 0
207 -789 -709 0
-207 789 0
-207 709 0
208 -207 -783 0
-208 207 0
-208 783 0
209 -790 -206 0
-209 790 0
-209 206 0
210 -789 -8 0
-210 789 0
-210 8 0
211 -210 -43 0
-211 210 0
-211 43 0
212 -791 -209 0
-212 791 0
-212 209 0
213 -37 -730 0
-213 37 0
-213 730 0
214 -213 -792 0
-214 213 0
-214 792 0
215 -793 -212 0
-215 793 0
-215 212 0
216 -724 -7 0
-216 724 0
-216 7 0
217 -216 -719 0
-217 216 0
-217 719 0
218 -794 -215 0
-218 794 0
-218 215 0
219 -795 -2 0
-219 795 0
-219 2 0
220 -219 -9 0
-220 219 0
-220 9 0
221 -796 -218 0
-221 796 0
-221 218 0
222 -763 -733 0
-222 763 0
-222 733 0
223 -222 -797 0
-223 222 0
-223 797 0
224 -798 -221 0
-224 798 0
-224 221 0
225 -23 -13 0
-225 23 0
-225 13 0
226 -225 -20 0
-226 225 0
-226 20 0
227 -799 -224 0
-227 799 0
-227 224 0
228 -759 -780 0
-228 759 0
-228 780 0
229 -228 -6 0
-229 228 0
-229 6 0
230 -800 -227 0
-230 800 0
-230 227 0
231 -42 -24 0
-231 42 0
-231 24 0
232 -231 -797 0
-232 231 0
-232 797 0
233 -801 -230 0
-233 801 0
-233 230 0
234 -755 -10 0
-234 755 0
-234 10 0
235 -234 -792 0
-235 234 0
-235 792 0
236 -802 -233 0
-236 802 0
-236 233 0
237 -42 -19 0
-237 42 0
-237 19 0
238 -237 -9 0
-238 237 0
-238 9 0
239 -803 -236 0
-239 803 0
-239 236 0
240 -38 -702 0
-240 38 0
-240 702 0
241 -240 -764 0
-241 240 0
-241 764 0
242 -804 -239 0
-242 804 0
-242 239 0
243 -21 -701 0
-243 21 0
-243 701 0
244 -243 -39 0
-244 243 0
-244 39 0
245 -805 -242 0
-245 805 0
-245 242 0
246 -753 -695 0
-246 753 0
-246 695 0
247 -246 -792 0
-247 246 0
-247 792 0
248 -806 -245 0
-248 806 0
-248 245 0
249 -763 -807 0
-249 763 0
-249 807 0
250 -249 -36 0
-250 249 0
-250 36 0
251 -808 -248 0
-251 808 0
-251 248 0
252 -763 -747 0
-252 763 0
-252 747 0
253 -252 -764 0
-253 252 0
-253 764 0
254 -809 -251 0
-254 809 0
-254 251 0
255 -50 -24 0
-255 50 0
-255 24 0
256 -255 -722 0
-256 255 0
-256 722 0
257 -810 -254 0
-257 810 0
-257 254 0
258 -43 -30 0
-258 43 0
-258 30 0
259 -258 -12 0
-259 258 0
-259 12 0
260 -811 -257 0
-260 811 0
-260 257 0
261 -47 -706 0
-261 47 0
-261 706 0
262 -261 -743 0
-262 261 0
-262 743 0
263 -812 -260 0
-263 812 0
-263 260 0
264 -795 -711 0
-264 795 0
-264 711 0
265 -264 -726 0
-265 264 0
-265 726 0
266 -813 -263 0
-266 813 0
-266 263 0
267 -20 -797 0
-267 20 0
-267 797 0
268 -267 -761 0
-268 267 0
-268 761 0
269 -814 -266 0
-269 814 0
-269 266 0
270 -761 -38 0
-270 761 0
-270 38 0
271 -270 -14 0
-271 270 0
-271 14 0
272 -815 -269 0
-272 815 0
-272 269 0
273 -6 -5 0
-273 6 0
-273 5 0
274 -273 -14 0
-274 273 0
-274 14 0
275 -816 -272 0
-275 816 0
-275 272 0
276 -38 -30 0
-276 38 0
-276 30 0
277 -276 -29 0
-277 276 0
-277 29 0
278 -817 -275 0
-278 817 0
-278 275 0
279 -46 -696 0
-279 46 0
-279 696 0
280 -279 -24 0
-280 279 0
-280 24 0
281 -818 -278 0
-281 818 0
-281 278 0
282 -807 -726 0
-282 807 0
-282 726 0
283 -282 -14 0
-283 282 0
-283 14 0
284 -819 -281 0
-284 819 0
-284 281 0
285 -714 -2 0
-285 714 0
-285 2 0
286 -285 -738 0
-286 285 0
-286 738 0
287 -820 -284 0
-287 820 0
-287 284 0
288 -726 -28 0
-288 726 0
-288 28 0
289 -288 -730 0
-289 288 0
-289 730 0
290 -821 -287 0
-290 821 0
-290 287 0
291 -48 -714 0
-291 48 0
-291 714 0
292 -291 -14 0
-292 291 0
-292 14 0
293 -822 -290 0
-293 822 0
-293 290 0
294 -728 -9 0
-294 728 0
-294 9 0
295 -294 -756 0
-295 294 0
-295 756 0
296 -823 -293 0
-296 823 0
-296 293 0
297 -258 -41 0
-297 258 0
-297 41 0
298 -824 -296 0
-298 824 0
-298 296 0
299 -10 -775 0
-299 10 0
-299 775 0
300 -299 -32 0
-300 299 0
-300 32 0
301 -825 -298 0
-301 825 0
-301 298 0
302 -18 -696 0
-302 18 0
-302 696 0
303 -302 -756 0
-303 302 0
-303 756 0
304 -826 -301 0
-304 826 0
-304 301 0
305 -43 -4 0
-305 43 0
-305 4 0
306 -305 -41 0
-306 305 0
-306 41 0
307 -827 -304 0
-307 827 0
-307 304 0
308 -48 -1 0
-308 48 0
-308 1 0
309 -308 -755 0
-309 308 0
-309 755 0
310 -828 -307 0
-310 828 0
-310 307 0
311 -30 -775 0
-311 30 0
-311 775 0
312 -311 -37 0
-312 311 0
-312 37 0
313 -829 -310 0
-313 829 0
-313 310 0
314 -763 -708 0
-314 763 0
-314 708 0
315 -314 -50 0
-315 314 0
-315 50 0
316 -830 -313 0
-316 830 0
-316 313 0
317 -6 -706 0
-317 6 0
-317 706 0
318 -317 -753 0
-318 317 0
-318 753 0
319 -831 -316 0
-319 831 0
-319 316 0
320 -48 -4 0
-320 48 0
-320 4 0
321 -320 -708 0
-321 320 0
-321 708 0
322 -832 -319 0
-322 832 0
-322 319 0
323 -23 -3 0
-323 23 0
-323 3 0
324 -323 -16 0
-324 323 0
-324 16 0
325 -833 -322 0
-325 833 0
-325 322 0
326 -46 -36 0
-326 46 0
-326 36 0
327 -326 -834 0
-327 326 0
-327 834 0
328 -835 -325 0
-328 835 0
-328 325 0
329 -789 -702 0
-329 789 0
-329 702 0
330 -329 -18 0
-330 329 0
-330 18 0
331 -836 -328 0
-331 836 0
-331 328 0
332 -21 -706 0
-332 21 0
-332 706 0
333 -332 -837 0
-333 332 0
-333 837 0
334 -838 -331 0
-334 838 0
-334 331 0
335 -775 -746 0
-335 775 0
-335 746 0
336 -335 -16 0
-336 335 0
-336 16 0
337 -839 -334 0
-337 839 0
-337 334 0
338 -29 -20 0
-338 29 0
-338 20 0
339 -338 -14 0
-339 338 0
-339 14 0
340 -840 -337 0
-340 840 0
-340 337 0
341 -17 -702 0
-341 17 0
-341 702 0
342 -341 -23 0
-342 341 0
-342 23 0
343 -841 -340 0
-343 841 0
-343 340 0
344 -724 -696 0
-344 724 0
-344 696 0
345 -344 -717 0
-345 344 0
-345 717 0
346 -842 -343 0
-346 842 0
-346 343 0
347 -38 -8 0
-347 38 0
-347 8 0
348 -347 -764 0
-348 347 0
-348 764 0
349 -843 -346 0
-349 843 0
-349 346 0
350 -36 -29 0
-350 36 0
-350 29 0
351 -350 -14 0
-351 350 0
-351 14 0
352 -844 -349 0
-352 844 0
-352 349 0
353 -719 -714 0
-353 719 0
-353 714 0
354 -353 -797 0
-354 353 0
-354 797 0
355 -845 -352 0
-355 845 0
-355 352 0
356 -48 -749 0
-356 48 0
-356 749 0
357 -356 -50 0
-357 356 0
-357 50 0
358 -846 -355 0
-358 846 0
-358 355 0
359 -50 -42 0
-359 50 0
-359 42 0
360 -359 -783 0
-360 359 0
-360 783 0
361 -847 -358 0
-361 847 0
-361 358 0
362 -747 -780 0
-362 747 0
-362 780 0
363 -362 -848 0
-363 362 0
-363 848 0
364 -849 -361 0
-364 849 0
-364 361 0
365 -789 -2 0
-365 789 0
-365 2 0
366 -365 -761 0
-366 365 0
-366 761 0
367 -850 -364 0
-367 850 0
-367 364 0
368 -733 -33 0
-368 733 0
-368 33 0
369 -368 -25 0
-369 368 0
-369 25 0
370 -851 -367 0
-370 851 0
-370 367 0
371 -789 -30 0
-371 789 0
-371 30 0
372 -371 -16 0
-372 371 0
-372 16 0
373 -852 -370 0
-373 852 0
-373 370 0
374 -41 -715 0
-374 41 0
-374 715 0
375 -374 -797 0
-375 374 0
-375 797 0
376 -853 -373 0
-376 853 0
-376 373 0
377 -722 -696 0
-377 722 0
-377 696 0
378 -377 -753 0
-378 377 0
-378 753 0
379 -854 -376 0
-379 854 0
-379 376 0
380 -33 -23 0
-380 33 0
-380 23 0
381 -380 -792 0
-381 380 0
-381 792 0
382 -855 -379 0
-382 855 0
-382 379 0
383 -759 -702 0
-383 759 0
-383 702 0
384 -383 -699 0
-384 383 0
-384 699 0
385 -856 -382 0
-385 856 0
-385 382 0
386 -27 -708 0
-386 27 0
-386 708 0
387 -386 -728 0
-387 386 0
-387 728 0
388 -857 -385 0
-388 857 0
-388 385 0
389 -41 -738 0
-389 41 0
-389 738 0
390 -389 -848 0
-390 389 0
-390 848 0
391 -858 -388 0
-391 858 0
-391 388 0
392 -48 -31 0
-392 48 0
-392 31 0
393 -392 -753 0
-393 392 0
-393 753 0
394 -859 -391 0
-394 859 0
-394 391 0
395 -45 -743 0
-395 45 0
-395 743 0
396 -395 -3 0
-396 395 0
-396 3 0
397 -860 -394 0
-397 860 0
-397 394 0
398 -48 -13 0
-398 48 0
-398 13 0
399 -398 -701 0
-399 398 0
-399 701 0
400 -861 -397 0
-400 861 0
-400 397 0
401 -738 -711 0
-401 738 0
-401 711 0
402 -401 -756 0
-402 401 0
-402 756 0
403 -862 -400 0
-403 862 0
-403 400 0
404 -714 -708 0
-404 714 0
-404 708 0
405 -404 -37 0
-405 404 0
-405 37 0
406 -863 -403 0
-406 863 0
-406 403 0
407 -42 -730 0
-407 42 0
-407 730 0
408 -407 -16 0
-408 407 0
-408 16 0
409 -864 -406 0
-409 864 0
-409 406 0
410 -745 -8 0
-410 745 0
-410 8 0
411 -410 -735 0
-411 410 0
-411 735 0
412 -865 -409 0
-412 865 0
-412 409 0
413 -789 -745 0
-413 789 0
-413 745 0
414 -413 -764 0
-414 413 0
-414 764 0
415 -866 -412 0
-415 866 0
-415 412 0
416 -344 -789 0
-416 344 0
-416 789 0
417 -867 -415 0
-417 867 0
-417 415 0
418 -29 -738 0
-418 29 0
-418 738 0
419 -418 -12 0
-419 418 0
-419 12 0
420 -868 -417 0
-420 868 0
-420 417 0
421 -740 -21 0
-421 740 0
-421 21 0
422 -421 -13 0
-422 421 0
-422 13 0
423 -869 -420 0
-423 869 0
-423 420 0
424 -38 -719 0
-424 38 0
-424 719 0
425 -424 -797 0
-425 424 0
-425 797 0
426 -870 -423 0
-426 870 0
-426 423 0
427 -9 -1 0
-427 9 0
-427 1 0
428 -427 -720 0
-428 427 0
-428 720 0
429 -871 -426 0
-429 871 0
-429 426 0
430 -764 -834 0
-430 764 0
-430 834 0
431 -430 -22 0
-431 430 0
-431 22 0
432 -872 -429 0
-432 872 0
-432 429 0
433 -50 -702 0
-433 50 0
-433 702 0
434 -433 -22 0
-434 433 0
-434 22 0
435 -873 -432 0
-435 873 0
-435 432 0
436 -763 -21 0
-436 763 0
-436 21 0
437 -436 -783 0
-437 436 0
-437 783 0
438 -874 -435 0
-438 874 0
-438 435 0
439 -848 -719 0
-439 848 0
-439 719 0
440 -439 -743 0
-440 439 0
-440 743 0
441 -875 -438 0
-441 875 0
-441 438 0
442 -42 -732 0
-442 42 0
-442 732 0
443 -442 -848 0
-443 442 0
-443 848 0
444 -876 -441 0
-444 876 0
-444 441 0
445 -709 -4 0
-445 709 0
-445 4 0
446 -445 -719 0
-446 445 0
-446 719 0
447 -877 -444 0
-447 877 0
-447 444 0
448 -795 -706 0
-448 795 0
-448 706 0
449 -448 -3 0
-449 448 0
-449 3 0
450 -878 -447 0
-450 878 0
-450 447 0
451 -714 -702 0
-451 714 0
-451 702 0
452 -451 -33 0
-452 451 0
-452 33 0
453 -879 -450 0
-453 879 0
-453 450 0
454 -35 -19 0
-454 35 0
-454 19 0
455 -454 -743 0
-455 454 0
-455 743 0
456 -880 -453 0
-456 880 0
-456 453 0
457 -23 -5 0
-457 23 0
-457 5 0
458 -457 -722 0
-458 457 0
-458 722 0
459 -881 -456 0
-459 881 0
-459 456 0
460 -47 -763 0
-460 47 0
-460 763 0
461 -460 -50 0
-461 460 0
-461 50 0
462 -882 -459 0
-462 882 0
-462 459 0
463 -726 -699 0
-463 726 0
-463 699 0
464 -463 -47 0
-464 463 0
-464 47 0
465 -883 -462 0
-465 883 0
-465 462 0
466 -35 -714 0
-466 35 0
-466 714 0
467 -466 -12 0
-467 466 0
-467 12 0
468 -884 -465 0
-468 884 0
-468 465 0
469 -714 -14 0
-469 714 0
-469 14 0
470 -469 -3 0
-470 469 0
-470 3 0
471 -885 -468 0
-471 885 0
-471 468 0
472 -320 -37 0
-472 320 0
-472 37 0
473 -886 -471 0
-473 886 0
-473 471 0
474 -795 -738 0
-474 795 0
-474 738 0
475 -474 -11 0
-475 474 0
-475 11 0
476 -887 -473 0
-476 887 0
-476 473 0
477 -715 -10 0
-477 715 0
-477 10 0
478 -477 -31 0
-478 477 0
-478 31 0
479 -888 -476 0
-479 888 0
-479 476 0
480 -50 -23 0
-480 50 0
-480 23 0
481 -480 -15 0
-481 480 0
-481 15 0
482 -889 -479 0
-482 889 0
-482 479 0
483 -717 -775 0
-483 717 0
-483 775 0
484 -483 -714 0
-484 483 0
-484 714 0
485 -890 -482 0
-485 890 0
-485 482 0
486 -35 -2 0
-486 35 0
-486 2 0
487 -486 -740 0
-487 486 0
-487 740 0
488 -891 -485 0
-488 891 0
-488 485 0
489 -759 -747 0
-489 759 0
-489 747 0
490 -489 -792 0
-490 489 0
-490 792 0
491 -892 -488 0
-491 892 0
-491 488 0
492 -732 -22 0
-492 732 0
-492 22 0
493 -492 -16 0
-493 492 0
-493 16 0
494 -893 -491 0
-494 893 0
-494 491 0
495 -699 -4 0
-495 699 0
-495 4 0
496 -495 -735 0
-496 495 0
-496 735 0
497 -894 -494 0
-497 894 0
-497 494 0
498 -709 -2 0
-498 709 0
-498 2 0
499 -498 -743 0
-499 498 0
-499 743 0
500 -895 -497 0
-500 895 0
-500 497 0
501 -711 -797 0
-501 711 0
-501 797 0
502 -501 -735 0
-502 501 0
-502 735 0
503 -896 -500 0
-503 896 0
-503 500 0
504 -747 -13 0
-504 747 0
-504 13 0
505 -504 -834 0
-505 504 0
-505 834 0
506 -897 -503 0
-506 897 0
-506 503 0
507 -761 -728 0
-507 761 0
-507 728 0
508 -507 -40 0
-508 507 0
-508 40 0
509 -898 -506 0
-509 898 0
-509 506 0
510 -48 -35 0
-510 48 0
-510 35 0
511 -510 -755 0
-511 510 0
-511 755 0
512 -899 -509 0
-512 899 0
-512 509 0
513 -49 -726 0
-513 49 0
-513 726 0
514 -513 -715 0
-514 513 0
-514 715 0
515 -900 -512 0
-515 900 0
-515 512 0
516 -27 -9 0
-516 27 0
-516 9 0
517 -516 -738 0
-517 516 0
-517 738 0
518 -901 -515 0
-518 901 0
-518 515 0
519 -837 -775 0
-519 837 0
-519 775 0
520 -519 -703 0
-520 519 0
-520 703 0
521 -902 -518 0
-521 902 0
-521 518 0
522 -45 -755 0
-522 45 0
-522 755 0
523 -522 -39 0
-523 522 0
-523 39 0
524 -903 -521 0
-524 903 0
-524 521 0
525 -19 -709 0
-525 19 0
-525 709 0
526 -525 -39 0
-526 525 0
-526 39 0
527 -904 -524 0
-527 904 0
-527 524 0
528 -789 -10 0
-528 789 0
-528 10 0
529 -528 -2 0
-529 528 0
-529 2 0
530 -905 -527 0
-530 905 0
-530 527 0
531 -755 -906 0
-531 755 0
-531 906 0
532 -531 -730 0
-532 531 0
-532 730 0
533 -907 -530 0
-533 907 0
-533 530 0
534 -46 -17 0
-534 46 0
-534 17 0
535 -534 -747 0
-535 534 0
-535 747 0
536 -908 -533 0
-536 908 0
-536 533 0
537 -282 -906 0
-537 282 0
-537 906 0
538 -909 -536 0
-538 909 0
-538 536 0
539 -733 -8 0
-539 733 0
-539 8 0
540 -539 -25 0
-540 539 0
-540 25 0
541 -910 -538 0
-541 910 0
-541 538 0
542 -763 -775 0
-542 763 0
-542 775 0
543 -542 -25 0
-543 542 0
-543 25 0
544 -911 -541 0
-544 911 0
-544 541 0
545 -807 -19 0
-545 807 0
-545 19 0
546 -545 -32 0
-546 545 0
-546 32 0
547 -912 -544 0
-547 912 0
-547 544 0
548 -46 -708 0
-548 46 0
-548 708 0
549 -548 -39 0
-549 548 0
-549 39 0
550 -913 -547 0
-550 913 0
-550 547 0
551 -780 -19 0
-551 780 0
-551 19 0
552 -551 -837 0
-552 551 0
-552 837 0
553 -914 -550 0
-553 914 0
-553 550 0
554 -789 -726 0
-554 789 0
-554 726 0
555 -554 -728 0
-555 554 0
-555 728 0
556 -915 -553 0
-556 915 0
-556 553 0
557 -759 -36 0
-557 759 0
-557 36 0
558 -557 -40 0
-558 557 0
-558 40 0
559 -916 -556 0
-559 916 0
-559 556 0
560 -711 -11 0
-560 711 0
-560 11 0
561 -560 -14 0
-561 560 0
-561 14 0
562 -917 -559 0
-562 917 0
-562 559 0
563 -46 -834 0
-563 46 0
-563 834 0
564 -563 -3 0
-564 563 0
-564 3 0
565 -918 -562 0
-565 918 0
-565 562 0
566 -542 -711 0
-566 542 0
-566 711 0
567 -919 -565 0
-567 919 0
-567 565 0
568 -24 -10 0
-568 24 0
-568 10 0
569 -568 -783 0
-569 568 0
-569 783 0
570 -920 -567 0
-570 920 0
-570 567 0
571 -41 -711 0
-571 41 0
-571 711 0
572 -571 -40 0
-572 571 0
-572 40 0
573 -921 -570 0
-573 921 0
-573 570 0
574 -780 -699 0
-574 780 0
-574 699 0
575 -574 -6 0
-575 574 0
-575 6 0
576 -922 -573 0
-576 922 0
-576 573 0
577 -37 -699 0
-577 37 0
-577 699 0
578 -577 -40 0
-578 577 0
-578 40 0
579 -923 -576 0
-579 923 0
-579 576 0
580 -724 -28 0
-580 724 0
-580 28 0
581 -580 -743 0
-581 580 0
-581 743 0
582 -924 -579 0
-582 924 0
-582 579 0
583 -733 -18 0
-583 733 0
-583 18 0
584 -583 -26 0
-584 583 0
-584 26 0
585 -925 -582 0
-585 925 0
-585 582 0
586 -50 -751 0
-586 50 0
-586 751 0
587 -586 -44 0
-587 586 0
-587 44 0
588 -926 -585 0
-588 926 0
-588 585 0
589 -696 -706 0
-589 696 0
-589 706 0
590 -589 -717 0
-590 589 0
-590 717 0
591 -927 -588 0
-591 927 0
-591 588 0
592 -755 -699 0
-592 755 0
-592 699 0
593 -592 -761 0
-593 592 0
-593 761 0
594 -928 -591 0
-594 928 0
-594 591 0
595 -747 -28 0
-595 747 0
-595 28 0
596 -595 -756 0
-596 595 0
-596 756 0
597 -929 -594 0
-597 929 0
-597 594 0
598 -35 -695 0
-598 35 0
-598 695 0
599 -598 -38 0
-599 598 0
-599 38 0
600 -930 -597 0
-600 930 0
-600 597 0
601 -714 -775 0
-601 714 0
-601 775 0
602 -601 -715 0
-602 601 0
-602 715 0
603 -931 -600 0
-603 931 0
-603 600 0
604 -27 -775 0
-604 27 0
-604 775 0
605 -604 -47 0
-605 604 0
-605 47 0
606 -932 -603 0
-606 932 0
-606 603 0
607 -733 -702 0
-607 733 0
-607 702 0
608 -607 -28 0
-608 607 0
-608 28 0
609 -933 -606 0
-609 933 0
-609 606 0
610 -50 -730 0
-610 50 0
-610 730 0
611 -610 -12 0
-611 610 0
-611 12 0
612 -934 -609 0
-612 934 0
-612 609 0
613 -7 -1 0
-613 7 0
-613 1 0
614 -613 -783 0
-614 613 0
-614 783 0
615 -935 -612 0
-615 935 0
-615 612 0
616 -724 -2 0
-616 724 0
-616 2 0
617 -616 -24 0
-617 616 0
-617 24 0
618 -936 -615 0
-618 936 0
-618 615 0
619 -44 -743 0
-619 44 0
-619 743 0
620 -619 -15 0
-620 619 0
-620 15 0
621 -937 -618 0
-621 937 0
-621 618 0
622 -789 -783 0
-622 789 0
-622 783 0
623 -622 -39 0
-623 622 0
-623 39 0
624 -938 -621 0
-624 938 0
-624 621 0
625 -715 -696 0
-625 715 0
-625 696 0
626 -625 -728 0
-626 625 0
-626 728 0
627 -939 -624 0
-627 939 0
-627 624 0
628 -745 -706 0
-628 745 0
-628 706 0
629 -628 -764 0
-629 628 0
-629 764 0
630 -940 -627 0
-630 940 0
-630 627 0
631 -795 -746 0
-631 795 0
-631 746 0
632 -631 -47 0
-632 631 0
-632 47 0
633 -941 -630 0
-633 941 0
-633 630 0
634 -701 -7 0
-634 701 0
-634 7 0
635 -634 -44 0
-635 634 0
-635 44 0
636 -942 -633 0
-636 942 0
-636 633 0
637 -764 -4 0
-637 764 0
-637 4 0
638 -637 -761 0
-638 637 0
-638 761 0
639 -943 -636 0
-639 943 0
-639 636 0
640 -18 -5 0
-640 18 0
-640 5 0
641 -640 -33 0
-641 640 0
-641 33 0
642 -944 -639 0
-642 944 0
-642 639 0
643 -807 -745 0
-643 807 0
-643 745 0
644 -643 -720 0
-644 643 0
-644 720 0
645 -945 -642 0
-645 945 0
-645 642 0
646 -35 -6 0
-646 35 0
-646 6 0
647 -646 -761 0
-647 646 0
-647 761 0
648 -946 -645 0
-648 946 0
-648 645 0
649 -46 -755 0
-649 46 0
-649 755 0
650 -649 -18 0
-650 649 0
-650 18 0
651 -947 -648 0
-651 947 0
-651 648 0
652 -733 -775 0
-652 733 0
-652 775 0
653 -652 -22 0
-653 652 0
-653 22 0
654 -948 -651 0
-654 948 0
-654 651 0
655 -637 -834 0
-655 637 0
-655 834 0
656 -949 -654 0
-656 949 0
-656 654 0
657 -848 -726 0
-657 848 0
-657 726 0
658 -657 -722 0
-658 657 0
-658 722 0
659 -950 -656 0
-659 950 0
-659 656 0
660 -708 -715 0
-660 708 0
-660 715 0
661 -660 -837 0
-661 660 0
-661 837 0
662 -951 -659 0
-662 951 0
-662 659 0
663 -755 -751 0
-663 755 0
-663 751 0
664 -663 -761 0
-664 663 0
-664 761 0
665 -952 -662 0
-665 952 0
-665 662 0
666 -795 -5 0
-666 795 0
-666 5 0
667 -666 -9 0
-667 666 0
-667 9 0
668 -953 -665 0
-668 953 0
-668 665 0
669 -41 -8 0
-669 41 0
-669 8 0
670 -669 -701 0
-670 669 0
-670 701 0
671 -954 -668 0
-671 954 0
-671 668 0
672 -32 -780 0
-672 32 0
-672 780 0
673 -672 -16 0
-673 672 0
-673 16 0
674 -955 -671 0
-674 955 0
-674 671 0
675 -789 -38 0
-675 789 0
-675 38 0
676 -675 -756 0
-676 675 0
-676 756 0
677 -956 -674 0
-677 956 0
-677 674 0
678 -116 -47 0
-678 116 0
-678 47 0
679 -957 -677 0
-679 957 0
-679 677 0
680 -33 -717 0
-680 33 0
-680 717 0
681 -680 -22 0
-681 680 0
-681 22 0
682 -958 -679 0
-682 958 0
-682 679 0
683 -27 -780 0
-683 27 0
-683 780 0
684 -683 -761 0
-684 683 0
-684 761 0
685 -959 -682 0
-685 959 0
-685 682 0
686 -38 -714 0
-686 38 0
-686 714 0
687 -686 -33 0
-687 686 0
-687 33 0
688 -960 -685 0
-688 960 0
-688 685 0
689 -19 -13 0
-689 19 0
-689 13 0
690 -689 -33 0
-690 689 0
-690 33 0
691 -961 -688 0
-691 961 0
-691 688 0
692 -41 -745 0
-692 41 0
-692 745 0
693 -692 -730 0
-693 692 0
-693 730 0
694 -962 -691 0
-694 962 0
-694 691 0
-695 -5 0
695 5 0
-696 -4 0
696 4 0
-697 -54 0
697 54 0
-698 -52 0
698 52 0
-699 -9 0
699 9 0
-700 -57 0
700 57 0
-701 -11 0
701 11 0
-702 -10 0
702 10 0
-703 -12 0
703 12 0
-704 -60 0
704 60 0
-705 -63 0
705 63 0
-706 -1 0
706 1 0
-707 -66 0
707 66 0
-708 -18 0
708 18 0
-709 -17 0
709 17 0
-710 -69 0
710 69 0
-711 -19 0
711 19 0
-712 -72 0
712 72 0
-713 -75 0
713 75 0
-714 -23 0
714 23 0
-715 -13 0
715 13 0
-716 -78 0
716 78 0
-717 -24 0
717 24 0
-718 -81 0
718 81 0
-719 -28 0
719 28 0
-720 -3 0
720 3 0
-721 -84 0
721 84 0
-722 -15 0
722 15 0
-723 -87 0
723 87 0
-724 -30 0
724 30 0
-725 -90 0
725 90 0
-726 -32 0
726 32 0
-727 -93 0
727 93 0
-728 -33 0
728 33 0
-729 -96 0
729 96 0
-730 -34 0
730 34 0
-731 -99 0
731 99 0
-732 -36 0
732 36 0
-733 -35 0
733 35 0
-734 -102 0
734 102 0
-735 -37 0
735 37 0
-736 -105 0
736 105 0
-737 -108 0
737 108 0
-738 -20 0
738 20 0
-739 -111 0
739 111 0
-740 -38 0
740 38 0
-741 -114 0
741 114 0
-742 -117 0
742 117 0
-743 -14 0
743 14 0
-744 -120 0
744 120 0
-745 -27 0
745 27 0
-746 -7 0
746 7 0
-747 -41 0
747 41 0
-748 -123 0
748 123 0
-749 -2 0
749 2 0
-750 -126 0
750 126 0
-751 -29 0
751 29 0
-752 -129 0
752 129 0
-753 -40 0
753 40 0
-754 -132 0
754 132 0
-755 -42 0
755 42 0
-756 -26 0
756 26 0
-757 -135 0
757 135 0
-758 -138 0
758 138 0
-759 -43 0
759 43 0
-760 -141 0
760 141 0
-761 -44 0
761 44 0
-762 -144 0
762 144 0
-763 -46 0
763 46 0
-764 -47 0
764 47 0
-765 -147 0
765 147 0
-766 -150 0
766 150 0
-767 -152 0
767 152 0
-768 -155 0
768 155 0
-769 -158 0
769 158 0
-770 -161 0
770 161 0
-771 -164 0
771 164 0
-772 -167 0
772 167 0
-773 -170 0
773 170 0
-774 -173 0
774 173 0
-775 -8 0
775 8 0
-776 -176 0
776 176 0
-777 -179 0
777 179 0
-778 -182 0
778 182 0
-779 -185 0
779 185 0
-780 -21 0
780 21 0
-781 -188 0
781 188 0
-782 -191 0
782 191 0
-783 -25 0
783 25 0
-784 -193 0
784 193 0
-785 -196 0
785 196 0
-786 -199 0
786 199 0
-787 -202 0
787 202 0
-788 -205 0
788 205 0
-789 -49 0
789 49 0
-790 -208 0
790 208 0
-791 -211 0
791 211 0
-792 -16 0
792 16 0
-793 -214 0
793 214 0
-794 -217 0
794 217 0
-795 -48 0
795 48 0
-796 -220 0
796 220 0
-797 -6 0
797 6 0
-798 -223 0
798 223 0
-799 -226 0
799 226 0
-800 -229 0
800 229 0
-801 -232 0
801 232 0
-802 -235 0
802 235 0
-803 -238 0
803 238 0
-804 -241 0
804 241 0
-805 -244 0
805 244 0
-806 -247 0
806 247 0
-807 -45 0
807 45 0
-808 -250 0
808 250 0
-809 -253 0
809 253 0
-810 -256 0
810 256 0
-811 -259 0
811 259 0
-812 -262 0
812 262 0
-813 -265 0
813 265 0
-814 -268 0
814 268 0
-815 -271 0
815 271 0
-816 -274 0
816 274 0
-817 -277 0
817 277 0
-818 -280 0
818 280 0
-819 -283 0
819 283 0
-820 -286 0
820 286 0
-821 -289 0
821 289 0
-822 -292 0
822 292 0
-823 -295 0
823 295 0
-824 -297 0
824 297 0
-825 -300 0
825 300 0
-826 -303 0
826 303 0
-827 -306 0
827 306 0
-828 -309 0
828 309 0
-829 -312 0
829 312 0
-830 -315 0
830 315 0
-831 -318 0
831 318 0
-832 -321 0
832 321 0
-833 -324 0
833 324 0
-834 -39 0
834 39 0
-835 -327 0
835 327 0
-836 -330 0
836 330 0
-837 -22 0
837 22 0
-838 -333 0
838 333 0
-839 -336 0
839 336 0
-840 -339 0
840 339 0
-841 -342 0
841 342 0
-842 -345 0
842 345 0
-843 -348 0
843 348 0
-844 -351 0
844 351 0
-845 -354 0
845 354 0
-846 -357 0
846 357 0
-847 -360 0
847 360 0
-848 -50 0
848 50 0
-849 -363 0
849 363 0
-850 -366 0
850 366 0
-851 -369 0
851 369 0
-852 -372 0
852 372 0
-853 -375 0
853 375 0
-854 -378 0
854 378 0
-855 -381 0
855 381 0
-856 -384 0
856 384 0
-857 -387 0
857 387 0
-858 -390 0
858 390 0
-859 -393 0
859 393 0
-860 -396 0
860 396 0
-861 -399 0
861 399 0
-862 -402 0
862 402 0
-863 -405 0
863 405 0
-864 -408 0
864 408 0
-865 -411 0
865 411 0
-866 -414 0
866 414 0
-867 -416 0
867 416 0
-868 -419 0
868 419 0
-869 -422 0
869 422 0
-870 -425 0
870 425 0
-871 -428 0
871 428 0
-872 -431 0
872 431 0
-873 -434 0
873 434 0
-874 -437 0
874 437 0
-875 -440 0
875 440 0
-876 -443 0
876 443 0
-877 -446 0
877 446 0
-878 -449 0
878 449 0
-879 -452 0
879 452 0
-880 -455 0
880 455 0
-881 -458 0
881 458 0
-882 -461 0
882 461 0
-883 -464 0
883 464 0
-884 -467 0
884 467 0
-885 -470 0
885 470 0
-886 -472 0
886 472 0
-887 -475 0
887 475 0
-888 -478 0
888 478 0
-889 -481 0
889 481 0
-890 -484 0
890 484 0
-891 -487 0
891 487 0
-892 -490 0
892 490 0
-893 -493 0
893 493 0
-894 -496 0
894 496 0
-895 -499 0
895 499 0
-896 -502 0
896 502 0
-897 -505 0
897 505 0
-898 -508 0
898 508 0
-899 -511 0
899 511 0
-900 -514 0
900 514 0
-901 -517 0
901 517 0
-902 -520 0
902 520 0
-903 -523 0
903 523 0
-904 -526 0
904 526 0
-905 -529 0
905 529 0
-906 -31 0
906 31 0
-907 -532 0
907 532 0
-908 -535 0
908 535 0
-909 -537 0
909 537 0
-910 -540 0
910 540 0
-911 -543 0
911 543 0
-912 -546 0
912 546 0
-913 -549 0
913 549 0
-914 -552 0
914 552 0
-915 -555 0
915 555 0
-916 -558 0
916 558 0
-917 -561 0
917 561 0
-918 -564 0
918 564 0
-919 -566 0
919 566 0
-920 -569 0
920 569 0
-921 -572 0
921 572 0
-922 -575 0
922 575 0
-923 -578 0
923 578 0
-924 -581 0
924 581 0
-925 -584 0
925 584 0
-926 -587 0
926 587 0
-927 -590 0
927 590 0
-928 -593 0
928 593 0
-929 -596 0
929 596 0
-930 -599 0
930 599 0
-931 -602 0
931 602 0
-932 -605 0
932 605 0
-933 -608 0
933 608 0
-934 -611 0
934 611 0
-935 -614 0
935 614 0
-936 -617 0
936 617 0
-937 -620 0
937 620 0
-938 -623 0
938 623 0
-939 -626 0
939 626 0
-940 -629 0
940 629 0
-941 -632 0
941 632 0
-942 -635 0
942 635 0
-943 -638 0
943 638 0
-944 -641 0
944 641 0
-945 -644 0
945 644 0
-946 -647 0
946 647 0
-947 -650 0
947 650 0
-948 -653 0
948 653 0
-949 -655 0
949 655 0
-950 -658 0
950 658 0
-951 -661 0
951 661 0
-952 -664 0
952 664 0
-953 -667 0
953 667 0
-954 -670 0
954 670 0
-955 -673 0
955 673 0
-956 -676 0
956 676 0
-957 -678 0
957 678 0
-958 -681 0
958 681 0
-959 -684 0
959 684 0
-960 -687 0
960 687 0
-961 -690 0
961 690 0
-962 -693 0
962 693 0
694 0
